SCIP version 5.0.0 [precision: 8 byte] [memory: block] [mode: optimized] [LP solver: NONE] [GitHash: 3bbd232]
Copyright (C) 2002-2017 Konrad-Zuse-Zentrum fuer Informationstechnik Berlin (ZIB)

External codes: 
  Readline EditLine w  GNU library for command line editing (gnu.org/s/readline)
  CppAD 20160000.1     Algorithmic Differentiation of C++ algorithms developed by B. Bell (www.coin-or.org/CppAD)
  ZLIB 1.2.5           General purpose compression library by J. Gailly and M. Adler (zlib.net)
  GMP 6.1.2            GNU Multiple Precision Arithmetic Library developed by T. Granlund (gmplib.org)

user parameter file <scip.set> not found - using default parameters

read problem <../../Split_data/output/breast/6/1_sample_breast.logreg>
============

File name	:	../../Split_data/output/breast/6/1_sample_breast.logreg
Problem name 	:	1_sample_breast
Number of data	:	156
Number of var	:	33
The given data has linear independence

[dim=1] time: 0.004415
[dim=2] time: 0.008793
[dim=3] time: 0.013233
[dim=4] time: 0.017431
[dim=5] time: 0.021704
[dim=6] time: 0.025984
[dim=7] time: 0.031966
[dim=8] time: 0.038206
[dim=9] time: 0.044025
[dim=10] time: 0.048084
[dim=11] time: 0.05345
[dim=12] time: 0.061205
[dim=13] time: 0.065287
[dim=14] Time of forward = 0.068557sec.
AIC: 121.648
k: 13

[dim=33] time: 0.02747
[dim=32] time: 0.045221
[dim=31] time: 0.064324
[dim=30] time: 0.083775
[dim=29] time: 0.096733
[dim=28] time: 0.113769
[dim=27] time: 0.123165
[dim=26] time: 0.133421
[dim=25] time: 0.143071
[dim=24] time: 0.153854
[dim=23] Time of backward = 0.16445sec.
AIC: 105.604
k: 24
